7
2147483647 7 4 32 94 12 21 
7 2147483647 35 10 75 17 66 
4 35 2147483647 25 26 91 89 
32 10 25 2147483647 89 98 53 
94 75 26 89 2147483647 34 28 
12 17 91 98 34 2147483647 56 
21 66 89 53 28 56 2147483647 
